p sp 115 613
a 0 1
a 0 4
a 0 9
a 0 16
a 0 23
a 0 33
a 0 35
a 0 41
a 0 65
a 0 90
a 0 93
a 0 104
a 1 0
a 1 25
a 1 27
a 1 33
a 1 37
a 1 45
a 1 57
a 1 89
a 1 101
a 1 103
a 1 105
a 1 109
a 2 3
a 2 6
a 2 13
a 2 14
a 2 15
a 2 47
a 2 60
a 2 64
a 2 72
a 2 74
a 2 100
a 2 106
a 3 2
a 3 5
a 3 11
a 3 26
a 3 40
a 3 52
a 3 58
a 3 72
a 3 74
a 3 81
a 3 84
a 3 102
a 4 0
a 4 5
a 4 9
a 4 16
a 4 23
a 4 28
a 4 41
a 4 69
a 4 93
a 4 104
a 4 108
a 5 3
a 5 4
a 5 10
a 5 11
a 5 52
a 5 74
a 5 81
a 5 84
a 5 90
a 5 97
a 5 98
a 5 107
a 6 2
a 6 7
a 6 32
a 6 39
a 6 47
a 6 55
a 6 58
a 6 60
a 6 64
a 6 85
a 6 100
a 6 106
a 7 6
a 7 8
a 7 21
a 7 22
a 7 40
a 7 68
a 7 73
a 7 77
a 7 78
a 7 82
a 7 108
a 7 111
a 8 7
a 8 9
a 8 21
a 8 22
a 8 41
a 8 51
a 8 68
a 8 77
a 8 78
a 8 90
a 8 111
a 9 0
a 9 4
a 9 8
a 9 16
a 9 22
a 9 23
a 9 41
a 9 64
a 9 93
a 9 104
a 9 108
a 10 5
a 10 11
a 10 60
a 10 72
a 10 74
a 10 81
a 10 84
a 10 98
a 10 102
a 10 107
a 11 3
a 11 5
a 11 10
a 11 24
a 11 28
a 11 50
a 11 69
a 11 90
a 11 97
a 11 104
a 12 13
a 12 14
a 12 17
a 12 18
a 12 26
a 12 34
a 12 36
a 12 38
a 12 43
a 12 85
a 13 2
a 13 12
a 13 15
a 13 32
a 13 39
a 13 45
a 13 60
a 13 64
a 13 100
a 13 106
a 13 110
a 14 2
a 14 12
a 14 15
a 14 26
a 14 38
a 14 43
a 14 54
a 14 71
a 14 85
a 14 99
a 15 2
a 15 13
a 15 14
a 15 32
a 15 39
a 15 47
a 15 60
a 15 68
a 15 92
a 15 100
a 15 106
a 15 114
a 16 0
a 16 4
a 16 9
a 16 17
a 16 23
a 16 38
a 16 41
a 16 67
a 16 81
a 16 93
a 16 104
a 17 12
a 17 16
a 17 20
a 17 27
a 17 58
a 17 62
a 17 65
a 17 87
a 17 95
a 17 96
a 17 113
a 18 12
a 18 19
a 18 31
a 18 34
a 18 36
a 18 38
a 18 42
a 18 54
a 18 61
a 18 71
a 18 99
a 19 18
a 19 29
a 19 30
a 19 33
a 19 35
a 19 36
a 19 44
a 19 55
a 19 79
a 19 94
a 19 101
a 20 17
a 20 21
a 20 36
a 20 62
a 20 65
a 20 70
a 20 75
a 20 76
a 20 87
a 20 96
a 20 113
a 21 7
a 21 8
a 21 20
a 21 22
a 21 32
a 21 46
a 21 51
a 21 68
a 21 77
a 21 108
a 21 111
a 22 7
a 22 8
a 22 9
a 22 21
a 22 23
a 22 47
a 22 51
a 22 68
a 22 77
a 22 78
a 22 108
a 23 0
a 23 4
a 23 9
a 23 16
a 23 22
a 23 41
a 23 78
a 23 90
a 23 93
a 23 104
a 23 111
a 24 11
a 24 25
a 24 28
a 24 50
a 24 66
a 24 69
a 24 84
a 24 87
a 24 90
a 24 110
a 25 1
a 25 24
a 25 33
a 25 37
a 25 45
a 25 53
a 25 89
a 25 103
a 25 105
a 25 106
a 25 109
a 26 3
a 26 12
a 26 14
a 26 27
a 26 34
a 26 38
a 26 42
a 26 43
a 26 61
a 26 85
a 27 1
a 27 17
a 27 26
a 27 56
a 27 62
a 27 63
a 27 65
a 27 70
a 27 76
a 27 95
a 27 96
a 28 4
a 28 11
a 28 24
a 28 38
a 28 50
a 28 69
a 28 78
a 28 90
a 28 113
a 29 19
a 29 30
a 29 35
a 29 42
a 29 55
a 29 79
a 29 80
a 29 82
a 29 91
a 29 94
a 29 101
a 30 19
a 30 29
a 30 35
a 30 44
a 30 50
a 30 55
a 30 79
a 30 82
a 30 94
a 30 101
a 30 109
a 31 18
a 31 32
a 31 34
a 31 43
a 31 54
a 31 55
a 31 61
a 31 71
a 31 79
a 31 85
a 31 99
a 32 6
a 32 13
a 32 15
a 32 21
a 32 31
a 32 39
a 32 47
a 32 49
a 32 64
a 32 100
a 32 106
a 33 0
a 33 1
a 33 19
a 33 25
a 33 37
a 33 45
a 33 89
a 33 103
a 33 105
a 33 109
a 34 12
a 34 18
a 34 26
a 34 31
a 34 35
a 34 42
a 34 54
a 34 61
a 34 71
a 34 94
a 34 99
a 35 0
a 35 19
a 35 29
a 35 30
a 35 34
a 35 44
a 35 55
a 35 79
a 35 92
a 35 94
a 35 101
a 36 12
a 36 18
a 36 19
a 36 20
a 36 37
a 36 43
a 36 58
a 36 59
a 37 1
a 37 25
a 37 33
a 37 36
a 37 45
a 37 80
a 37 89
a 37 95
a 37 103
a 37 105
a 37 109
a 38 12
a 38 14
a 38 16
a 38 18
a 38 26
a 38 28
a 38 39
a 38 43
a 38 54
a 38 71
a 38 85
a 39 6
a 39 13
a 39 15
a 39 32
a 39 38
a 39 47
a 39 54
a 39 60
a 39 82
a 39 100
a 39 106
a 40 3
a 40 7
a 40 41
a 40 51
a 40 52
a 40 72
a 40 74
a 40 81
a 40 98
a 40 102
a 40 107
a 41 0
a 41 4
a 41 8
a 41 9
a 41 16
a 41 23
a 41 40
a 41 67
a 41 93
a 41 104
a 42 18
a 42 26
a 42 29
a 42 34
a 42 43
a 42 57
a 42 63
a 43 12
a 43 14
a 43 26
a 43 31
a 43 36
a 43 38
a 43 42
a 43 61
a 43 70
a 43 79
a 43 85
a 44 19
a 44 30
a 44 35
a 44 45
a 44 48
a 44 57
a 44 66
a 44 75
a 44 86
a 44 91
a 44 112
a 45 1
a 45 13
a 45 25
a 45 33
a 45 37
a 45 44
a 45 62
a 45 89
a 45 103
a 45 105
a 45 109
a 46 21
a 46 47
a 46 49
a 46 53
a 46 67
a 46 73
a 46 83
a 46 88
a 46 110
a 46 111
a 46 114
a 47 2
a 47 6
a 47 15
a 47 22
a 47 32
a 47 39
a 47 46
a 47 60
a 47 61
a 47 64
a 47 100
a 48 44
a 48 49
a 48 53
a 48 57
a 48 66
a 48 75
a 48 86
a 48 91
a 48 92
a 48 96
a 48 98
a 49 32
a 49 46
a 49 48
a 49 53
a 49 67
a 49 73
a 49 83
a 49 84
a 49 88
a 49 110
a 49 114
a 50 11
a 50 24
a 50 28
a 50 30
a 50 51
a 50 68
a 50 69
a 50 78
a 50 90
a 51 8
a 51 21
a 51 22
a 51 40
a 51 50
a 51 68
a 51 77
a 51 78
a 51 101
a 51 108
a 51 111
a 52 3
a 52 5
a 52 40
a 52 53
a 52 72
a 52 74
a 52 84
a 52 98
a 52 102
a 52 112
a 53 25
a 53 46
a 53 48
a 53 49
a 53 52
a 53 67
a 53 73
a 53 83
a 53 86
a 53 88
a 53 110
a 53 114
a 54 14
a 54 18
a 54 31
a 54 34
a 54 38
a 54 39
a 54 55
a 54 61
a 54 71
a 54 99
a 55 6
a 55 19
a 55 29
a 55 30
a 55 31
a 55 35
a 55 54
a 55 79
a 55 89
a 55 94
a 55 101
a 56 27
a 56 57
a 56 62
a 56 65
a 56 70
a 56 76
a 56 87
a 56 95
a 56 96
a 56 106
a 57 1
a 57 42
a 57 44
a 57 48
a 57 56
a 57 75
a 57 86
a 57 91
a 57 92
a 57 112
a 58 3
a 58 6
a 58 17
a 58 36
a 58 59
a 58 63
a 58 88
a 58 97
a 58 101
a 58 114
a 59 36
a 59 58
a 59 60
a 59 63
a 59 66
a 59 76
a 59 97
a 59 113
a 60 2
a 60 6
a 60 10
a 60 13
a 60 15
a 60 39
a 60 47
a 60 59
a 60 64
a 60 71
a 60 106
a 61 18
a 61 26
a 61 31
a 61 34
a 61 43
a 61 47
a 61 54
a 61 62
a 61 71
a 61 92
a 61 99
a 62 17
a 62 20
a 62 27
a 62 45
a 62 56
a 62 61
a 62 70
a 62 76
a 62 87
a 62 95
a 62 105
a 63 27
a 63 42
a 63 58
a 63 59
a 63 64
a 63 65
a 63 97
a 63 109
a 63 112
a 64 2
a 64 6
a 64 9
a 64 13
a 64 32
a 64 47
a 64 60
a 64 63
a 64 100
a 64 106
a 64 111
a 65 0
a 65 17
a 65 20
a 65 27
a 65 56
a 65 63
a 65 66
a 65 70
a 65 87
a 65 96
a 65 113
a 66 24
a 66 44
a 66 48
a 66 59
a 66 65
a 66 75
a 66 76
a 66 86
a 66 91
a 66 92
a 66 112
a 67 16
a 67 41
a 67 46
a 67 49
a 67 53
a 67 68
a 67 73
a 67 83
a 67 88
a 67 104
a 67 110
a 67 114
a 68 7
a 68 8
a 68 15
a 68 21
a 68 22
a 68 50
a 68 51
a 68 67
a 68 78
a 68 108
a 68 111
a 69 4
a 69 11
a 69 24
a 69 28
a 69 50
a 69 70
a 69 83
a 69 88
a 69 90
a 69 91
a 69 95
a 70 20
a 70 27
a 70 43
a 70 56
a 70 62
a 70 65
a 70 69
a 70 76
a 70 95
a 70 103
a 70 113
a 71 14
a 71 18
a 71 31
a 71 34
a 71 38
a 71 54
a 71 60
a 71 61
a 71 72
a 71 99
a 72 2
a 72 3
a 72 10
a 72 40
a 72 52
a 72 71
a 72 74
a 72 81
a 72 102
a 72 104
a 72 107
a 73 7
a 73 46
a 73 49
a 73 53
a 73 67
a 73 74
a 73 77
a 73 83
a 73 88
a 73 110
a 73 114
a 74 2
a 74 3
a 74 5
a 74 10
a 74 40
a 74 52
a 74 72
a 74 73
a 74 82
a 74 84
a 74 102
a 75 20
a 75 44
a 75 48
a 75 57
a 75 66
a 75 76
a 75 86
a 75 92
a 75 107
a 75 112
a 76 20
a 76 27
a 76 56
a 76 59
a 76 62
a 76 66
a 76 70
a 76 75
a 76 95
a 76 96
a 76 113
a 77 7
a 77 8
a 77 21
a 77 22
a 77 51
a 77 73
a 77 78
a 77 82
a 77 98
a 77 108
a 77 111
a 78 7
a 78 8
a 78 22
a 78 23
a 78 28
a 78 50
a 78 51
a 78 68
a 78 77
a 78 108
a 78 111
a 79 19
a 79 29
a 79 30
a 79 31
a 79 35
a 79 43
a 79 55
a 79 80
a 79 94
a 79 101
a 79 109
a 80 29
a 80 37
a 80 79
a 80 82
a 80 85
a 80 86
a 80 91
a 80 93
a 80 94
a 80 105
a 80 110
a 81 3
a 81 5
a 81 10
a 81 16
a 81 40
a 81 72
a 81 82
a 81 83
a 81 84
a 81 98
a 81 107
a 82 7
a 82 29
a 82 30
a 82 39
a 82 74
a 82 77
a 82 80
a 82 81
a 82 93
a 82 94
a 82 100
a 83 46
a 83 49
a 83 53
a 83 67
a 83 69
a 83 73
a 83 81
a 83 84
a 83 88
a 83 110
a 83 114
a 84 3
a 84 5
a 84 10
a 84 24
a 84 49
a 84 52
a 84 74
a 84 81
a 84 83
a 84 98
a 84 107
a 85 6
a 85 12
a 85 14
a 85 26
a 85 31
a 85 38
a 85 43
a 85 80
a 85 99
a 86 44
a 86 48
a 86 53
a 86 57
a 86 66
a 86 75
a 86 80
a 86 87
a 86 91
a 86 92
a 86 97
a 87 17
a 87 20
a 87 24
a 87 56
a 87 62
a 87 65
a 87 86
a 87 95
a 87 96
a 87 104
a 87 113
a 88 46
a 88 49
a 88 53
a 88 58
a 88 67
a 88 69
a 88 73
a 88 83
a 88 89
a 88 107
a 88 110
a 88 114
a 89 1
a 89 25
a 89 33
a 89 37
a 89 45
a 89 55
a 89 88
a 89 99
a 89 103
a 89 105
a 89 109
a 90 0
a 90 5
a 90 8
a 90 11
a 90 23
a 90 24
a 90 28
a 90 50
a 90 69
a 91 29
a 91 44
a 91 48
a 91 57
a 91 66
a 91 69
a 91 80
a 91 86
a 91 92
a 91 93
a 91 112
a 92 15
a 92 35
a 92 48
a 92 57
a 92 61
a 92 66
a 92 75
a 92 86
a 92 91
a 92 106
a 92 112
a 93 0
a 93 4
a 93 9
a 93 16
a 93 23
a 93 41
a 93 80
a 93 82
a 93 91
a 93 104
a 94 19
a 94 29
a 94 30
a 94 34
a 94 35
a 94 55
a 94 79
a 94 80
a 94 82
a 94 101
a 95 17
a 95 27
a 95 37
a 95 56
a 95 62
a 95 69
a 95 70
a 95 76
a 95 87
a 95 113
a 96 17
a 96 20
a 96 27
a 96 48
a 96 56
a 96 65
a 96 76
a 96 87
a 96 112
a 96 113
a 97 5
a 97 11
a 97 58
a 97 59
a 97 63
a 97 86
a 97 98
a 97 112
a 98 5
a 98 10
a 98 40
a 98 48
a 98 52
a 98 77
a 98 81
a 98 84
a 98 97
a 98 102
a 98 107
a 99 14
a 99 18
a 99 31
a 99 34
a 99 54
a 99 61
a 99 71
a 99 85
a 99 89
a 99 100
a 100 2
a 100 6
a 100 13
a 100 15
a 100 32
a 100 39
a 100 47
a 100 64
a 100 82
a 100 99
a 100 102
a 101 1
a 101 19
a 101 29
a 101 30
a 101 35
a 101 51
a 101 55
a 101 58
a 101 79
a 101 94
a 102 3
a 102 10
a 102 40
a 102 52
a 102 72
a 102 74
a 102 98
a 102 100
a 102 103
a 102 107
a 103 1
a 103 25
a 103 33
a 103 37
a 103 45
a 103 70
a 103 89
a 103 102
a 103 105
a 103 109
a 104 0
a 104 4
a 104 9
a 104 11
a 104 16
a 104 23
a 104 41
a 104 67
a 104 72
a 104 87
a 104 93
a 104 114
a 105 1
a 105 25
a 105 33
a 105 37
a 105 45
a 105 62
a 105 80
a 105 89
a 105 103
a 105 109
a 106 2
a 106 6
a 106 13
a 106 15
a 106 25
a 106 32
a 106 39
a 106 56
a 106 60
a 106 64
a 106 92
a 107 5
a 107 10
a 107 40
a 107 72
a 107 75
a 107 81
a 107 84
a 107 88
a 107 98
a 107 102
a 108 4
a 108 7
a 108 9
a 108 21
a 108 22
a 108 51
a 108 68
a 108 77
a 108 78
a 108 111
a 109 1
a 109 25
a 109 30
a 109 33
a 109 37
a 109 45
a 109 63
a 109 79
a 109 89
a 109 103
a 109 105
a 110 13
a 110 24
a 110 46
a 110 49
a 110 53
a 110 67
a 110 73
a 110 80
a 110 83
a 110 88
a 110 114
a 111 7
a 111 8
a 111 21
a 111 23
a 111 46
a 111 51
a 111 64
a 111 68
a 111 77
a 111 78
a 111 108
a 112 44
a 112 52
a 112 57
a 112 63
a 112 66
a 112 75
a 112 91
a 112 92
a 112 96
a 112 97
a 113 17
a 113 20
a 113 28
a 113 59
a 113 65
a 113 70
a 113 76
a 113 87
a 113 95
a 113 96
a 114 15
a 114 46
a 114 49
a 114 53
a 114 58
a 114 67
a 114 73
a 114 83
a 114 88
a 114 104
a 114 110
